This is Ipopt version 3.12.13, running with linear solver ma57.

Number of nonzeros in equality constraint Jacobian...:        0
Number of nonzeros in inequality constraint Jacobian.:    21744
Number of nonzeros in Lagrangian Hessian.............:       21

Total number of variables............................:        6
                     variables with only lower bounds:        0
                variables with lower and upper bounds:        6
                     variables with only upper bounds:        0
Total number of equality constraints.................:        0
Total number of inequality constraints...............:     3624
        inequality constraints with only lower bounds:        0
   inequality constraints with lower and upper bounds:        0
        inequality constraints with only upper bounds:     3624

iter    objective    inf_pr   inf_du lg(mu)  ||d||  lg(rg) alpha_du alpha_pr  ls
   0  2.2128841e-02 3.27e-02 5.89e+00   0.0 0.00e+00    -  0.00e+00 0.00e+00   0
   1  2.4860366e-02 2.15e-02 8.46e+00  -5.5 1.75e-01    -  1.65e-01 4.93e-01h  1
   2  2.8221149e-02 8.87e-03 5.27e+00  -5.6 1.71e-01    -  4.12e-01 5.90e-01h  1
   3  2.8435234e-02 8.16e-03 4.61e+00  -5.8 7.80e-02    -  3.01e-01 7.95e-02h  1
   4  2.8575857e-02 7.63e-03 9.45e+00  -6.0 6.16e-02    -  3.59e-02 6.56e-02h  1
   5  2.9828937e-02 2.91e-03 1.89e+00  -6.0 7.07e-02    -  3.51e-01 6.18e-01h  1
   6  3.0512754e-02 1.54e-05 2.83e+00  -6.2 1.18e-01    -  4.97e-01 9.95e-01h  1
   7  3.0496917e-02 0.00e+00 6.49e-01  -6.5 5.24e-02    -  9.47e-01 1.00e+00h  1
   8  3.0159600e-02 0.00e+00 1.51e-01  -7.8 1.48e-02    -  6.37e-01 1.00e+00h  1
   9  2.9637425e-02 0.00e+00 1.40e-01  -8.2 5.88e-02    -  1.55e-01 1.00e+00h  1
iter    objective    inf_pr   inf_du lg(mu)  ||d||  lg(rg) alpha_du alpha_pr  ls
  10  2.9455859e-02 0.00e+00 1.19e-01  -8.3 4.94e-02    -  2.59e-01 6.26e-01h  1
  11  2.9446971e-02 0.00e+00 1.25e-01  -8.4 1.95e-02    -  9.29e-01 1.20e-01h  1
  12  2.9415114e-02 0.00e+00 6.32e-02  -9.5 1.54e-02    -  8.20e-01 6.14e-01h  1
  13  2.9401227e-02 0.00e+00 3.50e-03 -10.3 4.76e-03    -  9.78e-01 9.54e-01h  1
  14  2.9401361e-02 0.00e+00 6.60e-04  -7.2 2.36e-04    -  9.97e-01 1.00e+00h  1
  15  2.9401130e-02 0.00e+00 4.21e-02  -9.2 7.32e-05    -  1.00e+00 7.75e-01h  1
  16  2.9401093e-02 0.00e+00 5.70e-15  -9.3 1.66e-05    -  1.00e+00 1.00e+00h  1

Number of Iterations....: 16

                                   (scaled)                 (unscaled)
Objective...............:   2.9401093227798443e-02    2.9401093227798443e-02
Dual infeasibility......:   5.7010699620072851e-15    5.7010699620072851e-15
Constraint violation....:   0.0000000000000000e+00    0.0000000000000000e+00
Complementarity.........:   5.2186054765174422e-10    5.2186054765174422e-10
Overall NLP error.......:   5.2186054765174422e-10    5.2186054765174422e-10


Number of objective function evaluations             = 17
Number of objective gradient evaluations             = 17
Number of equality constraint evaluations            = 0
Number of inequality constraint evaluations          = 17
Number of equality constraint Jacobian evaluations   = 0
Number of inequality constraint Jacobian evaluations = 17
Number of Lagrangian Hessian evaluations             = 16
Total CPU secs in IPOPT (w/o function evaluations)   =      0.035
Total CPU secs in NLP function evaluations           =      0.060

EXIT: Optimal Solution Found.
